peakDumbCharging = 18500; 
Machine = anon_enum(16); 
machineSpeed = [3700,3700,3700,3700,3700,3700,3700,3700,3700,3700,3700,3700,3700,3700,3700,3700]; 
machineLoad = [3700,3700,3700,3700,3700,3700,3700,3700,3700,3700,3700,3700,3700,3700,3700,3700]; 
Car = anon_enum(24); 
demandCar = [16600,23480,12320,12480,3040,5400,17120,2680,2080,7360,25760,6360,4840,1400,6280,1680,6480,14960,5120,23600,9560,12360,6280,16720]; 
arrivalCar = [71,70,70,68,67,65,65,64,60,60,60,58,57,56,55,51,51,50,49,48,45,43,41,39]; 
departureCar = [77,81,77,73,70,69,71,66,62,65,73,60,59,61,59,53,55,56,53,56,49,52,45,45]; 
